%Entrada 
% Falla ya que hay tres barcos que necesitan por lo menos 10 slots con tiempo "seco" y solo
% se tienen 2 muelles y solo hay una franja con 10 slots con tiempo "seco".

%General:
muelles = 2;
barcos = 4;

%Barcos
B_codigoBarcos = [23, 56, 78, 34, 56, 12, 9, 58, 71, 74, 72, 73];
%Tiempo máximo de espera de un barco
B_tpEspera = [3, 3, 3, 9, 12, 2, 6, 8, 3, 3, 3, 3];
%Condiciones de clima a garantizar durante la estadía de cada barco. Se asume un ordenamiento [seco,húmedo,lluvia]
B_estadost = [|1,0,0|1,0,0|1,0,0|1,1,1|1,1,1|1,1,1|1,1,1|1,1,1|1,1,1|1,1,1|1,1,1|1,1,1|];
%Tiempo de descarga de un barco
B_tpdescarga = [10, 10, 10, 1, 3, 7, 7, 2, 8, 10, 11, 10];
%estados de mareas para un barco dado un ordenamiento [baja,media,alta]
B_estadosm = [|0,0,1|0,0,1|0,0,1|1,1,1|1,1,1|1,1,1|1,1,1|1,1,1|1,1,1|1,1,1|1,1,1|1,1,1|];

%Muelles
M_codigoMuelles = [45, 67, 32];

%Estados del tiempo en el puerto. 1 = seco, 2 = húmedo, 3 = lluvia
P_estadost=[1,2,1,1,1,1,1,1,1,1,1,1,1,2,1,1,2,1,1,1,1,1,2,2,2,2,2,2,2,2,2,2,2,2,2,2,2,2,2,2,2,2,1,1,1,1,1,1,2,1,1,1,1,1,1,2,1,1,1,1,1,1,2,2,2,2,2,2,2,2,2,2,2,2,2,2,2,2,2,2,2,2,3,3,3,3,3,3,3,3,3,3,3,3,3,3,3,3,3,3,3,3,3,3,3,3,3,3,3,3,3,3,3,3,3,3,3,3,3,3,3,3,1,2,1,1,1,2,2,2,2,2,3,3,3,3,3,1,1,2,2,2,2,2];


%Estados de la marea cada 5 minutos en el puerto. 4 = baja, 5 = media, 6 = alta
P_estadosm=[4,5,4,4,4,4,4,4,4,4,4,4,4,4,4,4,4,4,4,4,4,4,4,4,4,4,5,5,5,5,5,5,5,5,5,5,5,5,5,5,5,5,5,5,5,5,5,5,5,5,5,5,5,4,4,4,4,4,4,4,4,4,4,4,4,4,4,4,4,4,4,4,5,5,5,5,5,5,5,5,5,5,5,5,5,5,5,5,5,5,5,5,5,6,6,6,6,6,6,6,6,6,6,6,6,6,6,6,6,6,6,6,6,6,6,6,6,6,6,6,6,6,6,6,6,6,6,6,6,6,6,6,6,4,4,4,4,4,5,5,5,5,5,5];


%Restricciones Adicionales:
horaLlegada=[|1,2|2,15|]; %Barco 1 llega en 2, Barco 2 llega en 15
horasHabiles = [|1,24|1,144|1,144|]; %Muelle 1 disponible desde 1 hasta 24, Muelle 2 disponible desde 1 hasta 144, Muelle 3 disponible desde 1 hasta 144
